num_clientes = 4;
num_dias = 5;
num_plantas = 3;
min_porcent_demanda = 50;
reg_alto_dias = 2;
reg_alto_porcent = 80;
costo = [55, 25, 35];
capacidad = [1110, 320, 630];
pago = [73, 53, 51, 55];
demanda = [| 650,  750, 800, 900 
          | 630,  770, 810, 910
          | 620, 780,  820, 915
          | 610,  790, 830, 920
          | 600,  700, 840, 935
          |];
